(declare-const v0 Bool)
(declare-const v1 Bool)
(declare-const v2 Bool)
(declare-const v3 Bool)
(declare-const v4 Bool)
(assert (edge (or v0 v1) (or v1 (not v0))))
(assert (edge v2 true))
(assert (edge (or v1 v3 (not v0)) (or (not v3) (not v4))))
(assert (edge true (or v0 (not v2))))
(assert (edge (not v0) (not v0)))
(assert (not (edge true (or v0 (not v4)))))